     Program PHONON v.6.8 starts on 15Jan2022 at 10:20:42

     path-images division:  nimage    =       7
     K-points division:     npool     =       4

     Waiting for input...
     Reading input from standard input

     Reading xml data from directory:

     outputs/mos2-bulk_.save/

     IMPORTANT: XC functional enforced from input :
     Exchange-correlation= PBESOL
                           (   1   4  10   8   0   0   0)
     Any further DFT definition will be discarded
     Please, verify this is what you really want

     Using Slab Decomposition

     Reading collected, re-writing distributed wavefunctions
  autoval = -.1026E+00
     Irreps are as follows:

                     mode #   1
                     (   0.00000   0.00000   )
                     (   0.00000   0.00000   )
                     (   0.00000   0.00000   )
                     (   0.00000   0.00000   )
                     (   0.00000   0.00000   )
                     (   0.00000   0.00000   )
                     (   0.00000   0.00000   )
                     (  -0.00000   0.00000   )
                     (  -0.50000   0.00000   )
                     (   0.00000   0.00000   )
                     (  -0.00000   0.00000   )
                     (   0.50000   0.00000   )
                     (  -0.00000   0.00000   )
                     (   0.00000   0.00000   )
                     (  -0.50000   0.00000   )
                     (  -0.00000   0.00000   )
                     (   0.00000   0.00000   )
                     (   0.50000   0.00000   )
  autoval = -.6133E-01
     Irreps are as follows:

[...]

                     mode #  17
                     (   0.00000   0.00000   )
                     (   0.00000   0.00000   )
                     (   0.00000   0.00000   )
                     (   0.00000   0.00000   )
                     (   0.00000   0.00000   )
                     (   0.00000   0.00000   )
                     (  -0.00000   0.00000   )
                     (  -0.50000   0.00000   )
                     (  -0.00000   0.00000   )
                     (   0.00000   0.00000   )
                     (   0.50000   0.00000   )
                     (   0.00000   0.00000   )
                     (   0.00000   0.00000   )
                     (   0.50000   0.00000   )
                     (  -0.00000   0.00000   )
                     (  -0.00000   0.00000   )
                     (  -0.50000   0.00000   )
                     (  -0.00000   0.00000   )
  autoval = 0.1736E+01
     Irreps are as follows:

                     mode #  18
                     (   0.00000   0.00000   )
                     (   0.00000   0.00000   )
                     (   0.00000   0.00000   )
                     (   0.00000   0.00000   )
                     (   0.00000   0.00000   )
                     (   0.00000   0.00000   )
                     (  -0.50000   0.00000   )
                     (   0.00000   0.00000   )
                     (  -0.00000   0.00000   )
                     (   0.50000   0.00000   )
                     (  -0.00000   0.00000   )
                     (  -0.00000   0.00000   )
                     (   0.50000   0.00000   )
                     (  -0.00000   0.00000   )
                     (   0.00000   0.00000   )
                     (  -0.50000   0.00000   )
                     (   0.00000   0.00000   )
                     (   0.00000   0.00000   )

     Calculation of q =    0.0000000   0.0000000   0.0000000

       phonons of MoS2 at X

     bravais-lattice index     =            0
     lattice parameter (alat)  =       6.0288  a.u.
     unit-cell volume          =     885.0512 (a.u.)^3
     number of atoms/cell      =            6
     number of atomic types    =            2
     kinetic-energy cut-off    =      40.0000  Ry
     charge density cut-off    =     280.0000  Ry
     convergence threshold     =      1.0E-12
     beta                      =       0.4000
     number of iterations used =            4
     Exchange-correlation= PBESOL
                           (   1   4  10   8   0   0   0)

     celldm(1)=    6.02882  celldm(2)=    0.00000  celldm(3)=    0.00000
     celldm(4)=    0.00000  celldm(5)=    0.00000  celldm(6)=    0.00000

     crystal axes: (cart. coord. in units of alat)
               a(1) = (  1.0000  0.0000  0.0000 )
               a(2) = ( -0.5000  0.8660  0.0000 )
               a(3) = (  0.0000  0.0000  4.6638 )

     reciprocal axes: (cart. coord. in units 2 pi/alat)
               b(1) = (  1.0000  0.5774  0.0000 )
               b(2) = (  0.0000  1.1547  0.0000 )
               b(3) = (  0.0000  0.0000  0.2144 )

     Atoms inside the unit cell:

     Cartesian axes

     site n.  atom      mass           positions (alat units)
        1     Mo  95.9600   tau(    1) = (   -0.00000    0.57735    1.16595  )
        2     Mo  95.9600   tau(    2) = (    0.50000    0.28868    3.49785  )
        3     S   32.0650   tau(    3) = (    0.50000    0.28868    1.65646  )
        4     S   32.0650   tau(    4) = (   -0.00000    0.57735    3.98836  )
        5     S   32.0650   tau(    5) = (    0.50000    0.28868    0.67544  )
        6     S   32.0650   tau(    6) = (   -0.00000    0.57735    3.00734  )

     Computing dynamical matrix for
                    q = (   0.0000000   0.0000000   0.0000000 )

     25 Sym.Ops. (with q -> -q+G )

                                    s                        frac. trans.

      isym =  1     identity

 cryst.   s( 1) = (     1          0          0      )
                  (     0          1          0      )
                  (     0          0          1      )

 cart.    s( 1) = (  1.0000000  0.0000000  0.0000000 )
                  (  0.0000000  1.0000000  0.0000000 )
                  (  0.0000000  0.0000000  1.0000000 )

      isym =  2     180 deg rotation - cart. axis [0,0,1]

 cryst.   s( 2) = (    -1          0          0      )    f =(  0.0000000 )
                  (     0         -1          0      )       ( -0.0000000 )
                  (     0          0          1      )       ( -0.5000000 )

 cart.    s( 2) = ( -1.0000000  0.0000000  0.0000000 )    f =(  0.0000000 )
                  (  0.0000000 -1.0000000  0.0000000 )       ( -0.0000000 )
                  (  0.0000000  0.0000000  1.0000000 )       ( -2.3319015 )

[...]

      isym =  4     180 deg rotation - cart. axis [1,0,0]

[...]

      isym =  5     60 deg rotation - cryst. axis [0,0,1]

[...]

 cryst.   s( 8) = (    -1         -1          0      )
                  (     1          0          0      )
                  (     0          0          1      )

 cart.    s( 8) = ( -0.5000000  0.8660254  0.0000000 )
                  ( -0.8660254 -0.5000000  0.0000000 )
                  (  0.0000000  0.0000000  1.0000000 )

[...]

 cryst.   s( 9) = (     0         -1          0      )    f =( -0.0000000 )
                  (    -1          0          0      )       ( -0.0000000 )
                  (     0          0         -1      )       (  0.5000000 )

 cart.    s( 9) = (  0.5000000 -0.8660254  0.0000000 )    f =( -0.0000000 )
                  ( -0.8660254 -0.5000000  0.0000000 )       ( -0.0000000 )
                  (  0.0000000  0.0000000 -1.0000000 )       (  2.3319015 )

[...]

 cryst.   s(10) = (     1          1          0      )    f =(  0.0000000 )
                  (     0         -1          0      )       ( -0.0000000 )
                  (     0          0         -1      )       (  0.5000000 )

 cart.    s(10) = (  0.5000000  0.8660254  0.0000000 )    f =(  0.0000000 )
                  (  0.8660254 -0.5000000  0.0000000 )       ( -0.0000000 )
                  (  0.0000000  0.0000000 -1.0000000 )       (  2.3319015 )

[...]

 cryst.   s(11) = (    -1         -1          0      )
                  (     0          1          0      )
                  (     0          0         -1      )

 cart.    s(11) = ( -0.5000000 -0.8660254  0.0000000 )
                  ( -0.8660254  0.5000000  0.0000000 )
                  (  0.0000000  0.0000000 -1.0000000 )

      isym = 12     180 deg rotation - cryst. axis [1,1,0]

[...]

      isym = 13     inversion

[...]

      isym = 14     inv. 180 deg rotation - cart. axis [0,0,1]

[...]

      isym = 16     inv. 180 deg rotation - cart. axis [1,0,0]

[...]

      isym = 17     inv. 60 deg rotation - cryst. axis [0,0,1]

[...]

 cryst.   s(22) = (    -1         -1          0      )    f =(  0.0000000 )
                  (     0          1          0      )       ( -0.0000000 )
                  (     0          0          1      )       ( -0.5000000 )

 cart.    s(22) = ( -0.5000000 -0.8660254  0.0000000 )    f =(  0.0000000 )
                  ( -0.8660254  0.5000000  0.0000000 )       ( -0.0000000 )
                  (  0.0000000  0.0000000  1.0000000 )       ( -2.3319015 )

[...]

      isym = 24     inv. 180 deg rotation - cryst. axis [1,1,0]

[...]

     This transformation sends q -> -q+G

      isym = 25     identity

 cryst.   s(25) = (     1          0          0      )
                  (     0          1          0      )
                  (     0          0          1      )

 cart.    s(25) = (  1.0000000  0.0000000  0.0000000 )
                  (  0.0000000  1.0000000  0.0000000 )
                  (  0.0000000  0.0000000  1.0000000 )

     G cutoff =  257.7884  (  69899 G-vectors)     FFT grid: ( 36, 36,150)
     G cutoff =  147.3077  (  30137 G-vectors)  smooth grid: ( 25, 25,120)
     number of k points=    98
                       cart. coord. in units 2pi/alat
        k(    1) = (   0.0384615   0.0666173   0.0268022), wk =   0.0118343
        k(    2) = (   0.0384615   0.0666173   0.0804065), wk =   0.0118343
        k(    3) = (   0.0384615   0.1554405   0.0268022), wk =   0.0236686
        k(    4) = (   0.0384615   0.1554405   0.0804065), wk =   0.0236686
        k(    5) = (   0.0384615   0.2442636   0.0268022), wk =   0.0236686
        k(    6) = (   0.0384615   0.2442636   0.0804065), wk =   0.0236686
        k(    7) = (   0.0384615   0.3330867   0.0268022), wk =   0.0236686
        k(    8) = (   0.0384615   0.3330867   0.0804065), wk =   0.0236686
        k(    9) = (   0.0384615   0.4219098   0.0268022), wk =   0.0236686
        k(   10) = (   0.0384615   0.4219098   0.0804065), wk =   0.0236686
        k(   11) = (   0.0384615   0.5107329   0.0268022), wk =   0.0236686
        k(   12) = (   0.0384615   0.5107329   0.0804065), wk =   0.0236686
        k(   13) = (   0.0384615  -0.5551445   0.0268022), wk =   0.0236686
        k(   14) = (   0.0384615  -0.5551445   0.0804065), wk =   0.0236686
        k(   15) = (   0.0384615  -0.4663214   0.0268022), wk =   0.0236686
        k(   16) = (   0.0384615  -0.4663214   0.0804065), wk =   0.0236686
        k(   17) = (   0.0384615  -0.3774983   0.0268022), wk =   0.0236686
        k(   18) = (   0.0384615  -0.3774983   0.0804065), wk =   0.0236686
        k(   19) = (   0.0384615  -0.2886751   0.0268022), wk =   0.0236686
        k(   20) = (   0.0384615  -0.2886751   0.0804065), wk =   0.0236686
        k(   21) = (   0.0384615  -0.1998520   0.0268022), wk =   0.0236686
[...]
        k(   48) = (   0.1153846  -0.0666173   0.0804065), wk =   0.0118343
        k(   49) = (   0.1923077   0.3330867   0.0268022), wk =   0.0118343
        k(   50) = (   0.1923077   0.3330867   0.0804065), wk =   0.0118343
        k(   51) = (   0.1923077   0.4219098   0.0268022), wk =   0.0236686
        k(   52) = (   0.1923077   0.4219098   0.0804065), wk =   0.0236686
        k(   53) = (   0.1923077   0.5107329   0.0268022), wk =   0.0236686
        k(   54) = (   0.1923077   0.5107329   0.0804065), wk =   0.0236686
        k(   55) = (   0.1923077   0.5995560   0.0268022), wk =   0.0236686
        k(   56) = (   0.1923077   0.5995560   0.0804065), wk =   0.0236686
        k(   57) = (   0.1923077  -0.4663214   0.0268022), wk =   0.0236686
        k(   58) = (   0.1923077  -0.4663214   0.0804065), wk =   0.0236686
        k(   59) = (   0.1923077  -0.3774983   0.0268022), wk =   0.0236686
        k(   60) = (   0.1923077  -0.3774983   0.0804065), wk =   0.0236686
[...]
        k(   84) = (   0.3461538   0.6883792   0.0804065), wk =   0.0236686
        k(   85) = (   0.3461538  -0.3774983   0.0268022), wk =   0.0236686
        k(   86) = (   0.3461538  -0.3774983   0.0804065), wk =   0.0236686
        k(   87) = (   0.3461538  -0.2886751   0.0268022), wk =   0.0236686
        k(   88) = (   0.3461538  -0.2886751   0.0804065), wk =   0.0236686
        k(   89) = (   0.3461538  -0.1998520   0.0268022), wk =   0.0118343
        k(   90) = (   0.3461538  -0.1998520   0.0804065), wk =   0.0118343
        k(   91) = (   0.4230769   0.7327907   0.0268022), wk =   0.0118343
        k(   92) = (   0.4230769   0.7327907   0.0804065), wk =   0.0118343
        k(   93) = (   0.4230769  -0.3330867   0.0268022), wk =   0.0236686
        k(   94) = (   0.4230769  -0.3330867   0.0804065), wk =   0.0236686
        k(   95) = (   0.4230769  -0.2442636   0.0268022), wk =   0.0118343
        k(   96) = (   0.4230769  -0.2442636   0.0804065), wk =   0.0118343
        k(   97) = (  -0.5000000  -0.8660254   0.0268022), wk =   0.0059172
        k(   98) = (  -0.5000000  -0.8660254   0.0804065), wk =   0.0059172

                       cryst. coord.
        k(    1) = (   0.0384615   0.0384615   0.1250000), wk =   0.0118343
        k(    2) = (   0.0384615   0.0384615   0.3750000), wk =   0.0118343
        k(    3) = (   0.0384615   0.1153846   0.1250000), wk =   0.0236686
        k(    4) = (   0.0384615   0.1153846   0.3750000), wk =   0.0236686
        k(    5) = (   0.0384615   0.1923077   0.1250000), wk =   0.0236686
        k(    6) = (   0.0384615   0.1923077   0.3750000), wk =   0.0236686
        k(    7) = (   0.0384615   0.2692308   0.1250000), wk =   0.0236686
        k(    8) = (   0.0384615   0.2692308   0.3750000), wk =   0.0236686
        k(    9) = (   0.0384615   0.3461538   0.1250000), wk =   0.0236686
        k(   10) = (   0.0384615   0.3461538   0.3750000), wk =   0.0236686
        k(   11) = (   0.0384615   0.4230769   0.1250000), wk =   0.0236686
        k(   12) = (   0.0384615   0.4230769   0.3750000), wk =   0.0236686
        k(   13) = (   0.0384615  -0.5000000   0.1250000), wk =   0.0236686
        k(   14) = (   0.0384615  -0.5000000   0.3750000), wk =   0.0236686
        k(   15) = (   0.0384615  -0.4230769   0.1250000), wk =   0.0236686
        k(   16) = (   0.0384615  -0.4230769   0.3750000), wk =   0.0236686
        k(   17) = (   0.0384615  -0.3461538   0.1250000), wk =   0.0236686
        k(   18) = (   0.0384615  -0.3461538   0.3750000), wk =   0.0236686
        k(   19) = (   0.0384615  -0.2692308   0.1250000), wk =   0.0236686
        k(   20) = (   0.0384615  -0.2692308   0.3750000), wk =   0.0236686
        k(   21) = (   0.0384615  -0.1923077   0.1250000), wk =   0.0236686
        k(   22) = (   0.0384615  -0.1923077   0.3750000), wk =   0.0236686
        k(   23) = (   0.0384615  -0.1153846   0.1250000), wk =   0.0236686
        k(   24) = (   0.0384615  -0.1153846   0.3750000), wk =   0.0236686
        k(   25) = (   0.0384615  -0.0384615   0.1250000), wk =   0.0118343
        k(   26) = (   0.0384615  -0.0384615   0.3750000), wk =   0.0118343
        k(   27) = (   0.1153846   0.1153846   0.1250000), wk =   0.0118343
        k(   28) = (   0.1153846   0.1153846   0.3750000), wk =   0.0118343
        k(   29) = (   0.1153846   0.1923077   0.1250000), wk =   0.0236686
        k(   30) = (   0.1153846   0.1923077   0.3750000), wk =   0.0236686
        k(   31) = (   0.1153846   0.2692308   0.1250000), wk =   0.0236686
        k(   32) = (   0.1153846   0.2692308   0.3750000), wk =   0.0236686
        k(   33) = (   0.1153846   0.3461538   0.1250000), wk =   0.0236686
        k(   34) = (   0.1153846   0.3461538   0.3750000), wk =   0.0236686
        k(   35) = (   0.1153846   0.4230769   0.1250000), wk =   0.0236686
        k(   36) = (   0.1153846   0.4230769   0.3750000), wk =   0.0236686
        k(   37) = (   0.1153846  -0.5000000   0.1250000), wk =   0.0236686
        k(   38) = (   0.1153846  -0.5000000   0.3750000), wk =   0.0236686
        k(   39) = (   0.1153846  -0.4230769   0.1250000), wk =   0.0236686
        k(   40) = (   0.1153846  -0.4230769   0.3750000), wk =   0.0236686
        k(   41) = (   0.1153846  -0.3461538   0.1250000), wk =   0.0236686
        k(   42) = (   0.1153846  -0.3461538   0.3750000), wk =   0.0236686
        k(   43) = (   0.1153846  -0.2692308   0.1250000), wk =   0.0236686
        k(   44) = (   0.1153846  -0.2692308   0.3750000), wk =   0.0236686
        k(   45) = (   0.1153846  -0.1923077   0.1250000), wk =   0.0236686
        k(   46) = (   0.1153846  -0.1923077   0.3750000), wk =   0.0236686
        k(   47) = (   0.1153846  -0.1153846   0.1250000), wk =   0.0118343
        k(   48) = (   0.1153846  -0.1153846   0.3750000), wk =   0.0118343
        k(   49) = (   0.1923077   0.1923077   0.1250000), wk =   0.0118343
        k(   50) = (   0.1923077   0.1923077   0.3750000), wk =   0.0118343
        k(   51) = (   0.1923077   0.2692308   0.1250000), wk =   0.0236686
        k(   52) = (   0.1923077   0.2692308   0.3750000), wk =   0.0236686
        k(   53) = (   0.1923077   0.3461538   0.1250000), wk =   0.0236686
        k(   54) = (   0.1923077   0.3461538   0.3750000), wk =   0.0236686
        k(   55) = (   0.1923077   0.4230769   0.1250000), wk =   0.0236686
        k(   56) = (   0.1923077   0.4230769   0.3750000), wk =   0.0236686
        k(   57) = (   0.1923077  -0.5000000   0.1250000), wk =   0.0236686
        k(   58) = (   0.1923077  -0.5000000   0.3750000), wk =   0.0236686
        k(   59) = (   0.1923077  -0.4230769   0.1250000), wk =   0.0236686
        k(   60) = (   0.1923077  -0.4230769   0.3750000), wk =   0.0236686
[...]
        k(   84) = (   0.3461538   0.4230769   0.3750000), wk =   0.0236686
        k(   85) = (   0.3461538  -0.5000000   0.1250000), wk =   0.0236686
        k(   86) = (   0.3461538  -0.5000000   0.3750000), wk =   0.0236686
        k(   87) = (   0.3461538  -0.4230769   0.1250000), wk =   0.0236686
        k(   88) = (   0.3461538  -0.4230769   0.3750000), wk =   0.0236686
        k(   89) = (   0.3461538  -0.3461538   0.1250000), wk =   0.0118343
        k(   90) = (   0.3461538  -0.3461538   0.3750000), wk =   0.0118343
        k(   91) = (   0.4230769   0.4230769   0.1250000), wk =   0.0118343
        k(   92) = (   0.4230769   0.4230769   0.3750000), wk =   0.0118343
        k(   93) = (   0.4230769  -0.5000000   0.1250000), wk =   0.0236686
        k(   94) = (   0.4230769  -0.5000000   0.3750000), wk =   0.0236686
        k(   95) = (   0.4230769  -0.4230769   0.1250000), wk =   0.0118343
        k(   96) = (   0.4230769  -0.4230769   0.3750000), wk =   0.0118343
        k(   97) = (  -0.5000000  -0.5000000   0.1250000), wk =   0.0059172
        k(   98) = (  -0.5000000  -0.5000000   0.3750000), wk =   0.0059172

     PseudoPot. # 1 for Mo read from file:
     pseudo/Mo_ONCV_PBEsol-1.0.upf
     MD5 check sum: 5193ba6a20874d27c2ef80314d1b3445
     Pseudo is Norm-conserving, Zval = 14.0
     Generated using ONCVPSP code by D. R. Hamann
     Using radial grid of 1508 points,  6 beta functions with:
                l(1) =   0
                l(2) =   0
                l(3) =   1
                l(4) =   1
                l(5) =   2
                l(6) =   2

     PseudoPot. # 2 for S  read from file:
     pseudo/s_pbesol_v1.4.uspp.F.UPF
     MD5 check sum: 0ccfa86ec6eb59065d10aaae963ef2a7
     Pseudo is Ultrasoft + core correction, Zval =  6.0
     Generated by new atomic code, or converted to UPF format
     Using radial grid of  907 points,  6 beta functions with:
                l(1) =   0
                l(2) =   0
                l(3) =   1
                l(4) =   1
                l(5) =   2
                l(6) =   2
     Q(r) pseudized with  8 coefficients,  rinner =    1.300   1.300   1.300
                                                       1.300   1.300

     point group D_6h(6/mmm)
     there are 12 classes
     the character table:

       E     2C6   2C3   C2    3C2'  3C2'' i     2S3   2S6   s_h   3s_d  3s_v
A_1g   1.00  1.00  1.00  1.00  1.00  1.00  1.00  1.00  1.00  1.00  1.00  1.00
A_2g   1.00  1.00  1.00  1.00 -1.00 -1.00  1.00  1.00  1.00  1.00 -1.00 -1.00
B_1g   1.00 -1.00  1.00 -1.00  1.00 -1.00  1.00 -1.00  1.00 -1.00  1.00 -1.00
B_2g   1.00 -1.00  1.00 -1.00 -1.00  1.00  1.00 -1.00  1.00 -1.00 -1.00  1.00
E_1g   2.00  1.00 -1.00 -2.00  0.00  0.00  2.00  1.00 -1.00 -2.00  0.00  0.00
E_2g   2.00 -1.00 -1.00  2.00  0.00  0.00  2.00 -1.00 -1.00  2.00  0.00  0.00
A_1u   1.00  1.00  1.00  1.00  1.00  1.00 -1.00 -1.00 -1.00 -1.00 -1.00 -1.00
A_2u   1.00  1.00  1.00  1.00 -1.00 -1.00 -1.00 -1.00 -1.00 -1.00  1.00  1.00
B_1u   1.00 -1.00  1.00 -1.00  1.00 -1.00 -1.00  1.00 -1.00  1.00 -1.00  1.00
B_2u   1.00 -1.00  1.00 -1.00 -1.00  1.00 -1.00  1.00 -1.00  1.00  1.00 -1.00
E_1u   2.00  1.00 -1.00 -2.00  0.00  0.00 -2.00 -1.00  1.00  2.00  0.00  0.00
E_2u   2.00 -1.00 -1.00  2.00  0.00  0.00 -2.00  1.00  1.00 -2.00  0.00  0.00

     the symmetry operations in each class and the name of the first element:

     E        1

     2C6      5    6

     2C3      7    8

     C2       2

     3C2'     4   12   11

     3C2''    3    9   10

     i       13

     2S3     17   18

     2S6     19   20

     s_h     14

     3s_d    16   24   23

     3s_v    15   21   22

     Electric field:
     Dielectric constant
     Born effective charges as d Force / d E

     Atomic displacements:
     There are   12 irreducible representations

     Representation     1      1 modes -  To be done
     Irreps are as follows:

[...]

     Representation     2      1 modes -  Not done in this run
     Irreps are as follows:

[...]

           mode #   4                           mode #   5
           (   0.00000   0.00000   )            (   0.00000   0.00000   )
           (   0.00000   0.00000   )            (   0.00000   0.00000   )
           (   0.00000   0.00000   )            (   0.00000   0.00000   )
           (   0.00000   0.00000   )            (   0.00000   0.00000   )
           (   0.00000   0.00000   )            (   0.00000   0.00000   )
           (   0.00000   0.00000   )            (   0.00000   0.00000   )
           (  -0.00020   0.00000   )            (  -0.50000   0.00000   )
           (  -0.50000   0.00000   )            (   0.00020   0.00000   )
           (   0.00000   0.00000   )            (   0.00000   0.00000   )
           (  -0.00020   0.00000   )            (  -0.50000   0.00000   )
           (  -0.50000   0.00000   )            (   0.00020   0.00000   )
           (   0.00000   0.00000   )            (  -0.00000   0.00000   )
           (   0.00020   0.00000   )            (   0.50000   0.00000   )
           (   0.50000   0.00000   )            (  -0.00020   0.00000   )
           (  -0.00000   0.00000   )            (  -0.00000   0.00000   )
           (   0.00020   0.00000   )            (   0.50000   0.00000   )
           (   0.50000   0.00000   )            (  -0.00020   0.00000   )
           (  -0.00000   0.00000   )            (   0.00000   0.00000   )

[...]

                     mode #  12
                     (   0.00000   0.00000   )
                     (   0.00000   0.00000   )
                     (   0.00000   0.00000   )
                     (   0.00000   0.00000   )
                     (   0.00000   0.00000   )
                     (   0.00000   0.00000   )
                     (  -0.00000   0.00000   )
                     (  -0.00000   0.00000   )
                     (  -0.50000   0.00000   )
                     (  -0.00000   0.00000   )
                     (  -0.00000   0.00000   )
                     (   0.50000   0.00000   )
                     (   0.00000   0.00000   )
                     (   0.00000   0.00000   )
                     (   0.50000   0.00000   )
                     (   0.00000   0.00000   )
                     (   0.00000   0.00000   )
                     (  -0.50000   0.00000   )

[...]

     Representation    12      2 modes -  Not done in this run
     Irreps are as follows:

           mode #  17                           mode #  18
           (   0.00000   0.00000   )            (   0.00000   0.00000   )
           (   0.00000   0.00000   )            (   0.00000   0.00000   )
           (   0.00000   0.00000   )            (   0.00000   0.00000   )
           (   0.00000   0.00000   )            (   0.00000   0.00000   )
           (   0.00000   0.00000   )            (   0.00000   0.00000   )
           (   0.00000   0.00000   )            (   0.00000   0.00000   )
           (  -0.00000   0.00000   )            (  -0.50000   0.00000   )
           (  -0.50000   0.00000   )            (   0.00000   0.00000   )
           (  -0.00000   0.00000   )            (  -0.00000   0.00000   )
           (   0.00000   0.00000   )            (   0.50000   0.00000   )
           (   0.50000   0.00000   )            (  -0.00000   0.00000   )
           (   0.00000   0.00000   )            (  -0.00000   0.00000   )
           (   0.00000   0.00000   )            (   0.50000   0.00000   )
           (   0.50000   0.00000   )            (  -0.00000   0.00000   )
           (  -0.00000   0.00000   )            (   0.00000   0.00000   )
           (  -0.00000   0.00000   )            (  -0.50000   0.00000   )
           (  -0.50000   0.00000   )            (   0.00000   0.00000   )
           (  -0.00000   0.00000   )            (   0.00000   0.00000   )

     Compute atoms:     3,    4,    5,    6,

     Alpha used in Ewald sum =   2.5000

     Electric Fields Calculation

      thresh= 1.000E-02 alpha_mix =  0.400 |ddv_scf|^2 =  1.002E-04

[...]

     End of electric fields calculation

          Dielectric constant in cartesian axis

          (      12.747967245       0.000000000      -0.000000000 )
          (       0.000000000      12.747967245      -0.000000000 )
          (      -0.000000000      -0.000000000       3.288647629 )

          Effective charges (d Force / dE) in cartesian axis

           atom      1   Mo
      Ex  (       -1.04732        0.00000        0.00000 )
      Ey  (       -0.00000       -1.04732        0.00000 )
      Ez  (        0.00000        0.00000       -0.25927 )
           atom      2   Mo
      Ex  (       -1.04732       -0.00000        0.00000 )
      Ey  (       -0.00000       -1.04732        0.00000 )
      Ez  (        0.00000        0.00000       -0.25927 )
           atom      3   S
      Ex  (        0.52475       -0.00000       -0.00000 )
      Ey  (       -0.00000        0.52475        0.00000 )
      Ez  (        0.00000        0.00000        0.13105 )
           atom      4   S
      Ex  (        0.52475        0.00000        0.00000 )
      Ey  (       -0.00000        0.52475       -0.00000 )
      Ez  (       -0.00000       -0.00000        0.13105 )
           atom      5   S
      Ex  (        0.52475        0.00000        0.00000 )
      Ey  (        0.00000        0.52475       -0.00000 )
      Ez  (       -0.00000        0.00000        0.13105 )
           atom      6   S
      Ex  (        0.52475        0.00000       -0.00000 )
      Ey  (        0.00000        0.52475        0.00000 )
      Ez  (        0.00000       -0.00000        0.13105 )

     Representation #   1 mode #   1

     Self-consistent Calculation

[...]

      thresh= 2.586E-07 alpha_mix =  0.400 |ddv_scf|^2 =  1.907E-13

     End of self-consistent calculation

     Convergence has been achieved

     Stopping because representation    2 is not done

     INITIALIZATION:

     DIELECTRIC CONSTANT AND EFFECTIVE CHARGES:

     DYNAMICAL MATRIX:

      General routines

   This run was terminated on:  10:46:42  15Jan2022

   JOB DONE.